n_res = 4;
rc = [ 32, 37, 42, 42 ];
n_tasks = 30;
d = [ 2, 6, 9, 9, 10, 7, 10, 7, 5, 8, 10, 2, 8, 6, 1, 7, 5, 2, 4, 3, 10, 10, 3, 3, 7, 8, 7, 4, 9, 1 ];
rr = [| 0, 0, 9, 0, 1, 2, 8, 0, 4, 3, 10, 8, 2, 0, 5, 5, 9, 0, 1, 0, 3, 0, 0, 3, 7, 4, 2, 4, 8, 1
      | 6, 0, 2, 7, 4, 9, 8, 1, 8, 3, 0, 6, 2, 8, 4, 6, 6, 3, 6, 1, 2, 8, 8, 1, 9, 0, 7, 4, 8, 8
      | 7, 8, 6, 0, 9, 6, 0, 3, 0, 9, 0, 4, 1, 0, 10, 8, 0, 8, 4, 1, 8, 4, 0, 10, 1, 9, 8, 8, 8, 2
      | 6, 1, 3, 0, 10, 0, 0, 8, 0, 8, 7, 0, 9, 3, 0, 8, 0, 5, 10, 5, 4, 0, 5, 5, 2, 0, 0, 4, 10, 2 |];
suc = [ { 2 }, 
        { 3 }, 
        { 4 }, 
        { 5 }, 
        { 6 }, 
        { 7 }, 
        { 8 }, 
        { 9 }, 
        { 10 }, 
        { 11 }, 
        { 12 }, 
        { 13 }, 
        { 14 }, 
        { 15 }, 
        { 16 }, 
        { 17 }, 
        { 18 }, 
        { 19 }, 
        { 20 }, 
        { 21 }, 
        { 22 }, 
        { 23 }, 
        { 24 }, 
        { 25 }, 
        { 26 }, 
        { 27 }, 
        { 28 }, 
        { 29 }, 
        { 30 }, 
        {  }]; 
